Problem:    
Rows:       256
Columns:    89 (72 integer, 72 binary)
Non-zeros:  960
Status:     INTEGER OPTIMAL
Objective:  value = 4.843162 (MINimum)

   No.   Row name        Activity     Lower bound   Upper bound
------ ------------    ------------- ------------- -------------
     1 r.5                   1004.84             0               
     2 r.6                  -997.326       -999.41               
     3 r.7                   4.84316             0               
     4 r.8                   2.67386      -997.336               
     5 r.9                   4.84316             0               
     6 r.10                 -999.197      -999.351               
     7 r.11                  1004.84             0               
     8 r.12                 -996.366      -997.377               
     9 r.13                  1004.84             0               
    10 r.14                 -997.917      -999.048               
    11 r.15                  4.84316             0               
    12 r.16                  3.82086      -996.426               
    13 r.17                  1004.84             0               
    14 r.18                 -998.869      -999.495               
    15 r.19                  4.84316             0               
    16 r.20                  1.13131      -997.365               
    17 r.21                  1004.84             0               
    18 r.22                 -999.374      -999.528               
    19 r.23                  4.84316             0               
    20 r.24                  2.67386      -997.895               
    21 r.25                  1004.84             0               
    22 r.26                 -999.955      -999.955               
    23 r.27                  4.84316             0               
    24 r.28                  -998.17       -998.17               
    25 r.29                  1004.84             0               
    26 r.30                 -996.179      -998.853               
    27 r.31                  4.84316             0               
    28 r.32                  4.84316      -994.212               
    29 r.33                  1004.84             0               
    30 r.34                 -995.157      -998.978               
    31 r.35                  4.84316             0               
    32 r.36                  4.84316      -997.647               
    33 r.37                        1             1             = 
    34 r.38                        1             1             = 
    35 r.39                        1             1             = 
    36 r.40                        1             1             = 
    37 r.41                        1             1             = 
    38 r.42                        1             1             = 
    39 r.43                        1             1             = 
    40 r.44                        1             1             = 
    41 r.45                     1001             2               
    42 r.46                    -1001         -1001               
    43 r.47                 -1.87084      -999.351               
    44 r.48                     1001             2               
    45 r.49                    -1001         -1001               
    46 r.50                  2000.96      -997.377               
    47 r.51                        2             2               
    48 r.52                       -2         -1001               
    49 r.53                -0.590392      -999.048               
    50 r.54                     1000             2               
    51 r.55                    -1000         -1001               
    52 r.56                  2001.15      -996.426               
    53 r.57                        2             2               
    54 r.58                       -2         -1001               
    55 r.59                 -1.54255      -999.495               
    56 r.60                     1000             2               
    57 r.61                    -1000         -1001               
    58 r.62                  1998.46      -997.365               
    59 r.63                        2             2               
    60 r.64                       -2         -1001               
    61 r.65                 -2.04788      -999.528               
    62 r.66                     1000             2               
    63 r.67                    -1000         -1001               
    64 r.68                     2000      -997.895               
    65 r.69                  -997.48       -999.41               
    66 r.70                   2.5202      -997.336               
    67 r.71                  1.03012       -999.41               
    68 r.72                  1001.03      -997.336               
    69 r.73                 -998.853      -998.853               
    70 r.74                   2.1693      -994.212               
    71 r.75                 -998.853      -998.853               
    72 r.76                   2.1693      -994.212               
    73 r.77                        2             2               
    74 r.78                       -2         -1001               
    75 r.79                 -997.831      -998.978               
    76 r.80                     1000             2               
    77 r.81                    -1000         -1001               
    78 r.82                  2002.17      -997.647               
    79 r.83                     1001             2               
    80 r.84                    -1001         -1001               
    81 r.85                  4001.98      0.590392               
    82 r.86                     1001             2               
    83 r.87                    -1001         -1001               
    84 r.88                  1998.85       2.66397               
    85 r.89                     1001             2               
    86 r.90                    -1001         -1001               
    87 r.91                  3001.39      -999.048               
    88 r.92                     1001             2               
    89 r.93                    -1001         -1001               
    90 r.94                     2000      -996.426               
    91 r.95                     1001             2               
    92 r.96                    -1001         -1001               
    93 r.97                  3000.44      -999.495               
    94 r.98                     1001             2               
    95 r.99                    -1001         -1001               
    96 r.100                 1997.31      -997.365               
    97 r.101                    1001             2               
    98 r.102                   -1001         -1001               
    99 r.103                 2999.93      -999.528               
   100 r.104                    1001             2               
   101 r.105                   -1001         -1001               
   102 r.106                 1998.85      -997.895               
   103 r.107                -999.351      -999.351               
   104 r.108                -996.519      -997.377               
   105 r.109               -0.840721      -999.351               
   106 r.110                 1.99056      -997.377               
   107 r.111                    1001             2               
   108 r.112                   -1001         -1001               
   109 r.113                 3003.13      -998.853               
   110 r.114                    1001             2               
   111 r.115                   -1001         -1001               
   112 r.116                 2001.02      -994.212               
   113 r.117                   4.149      -998.978               
   114 r.118                 1004.15      -997.647               
   115 r.119                -998.978      -998.978               
   116 r.120                  1.0223      -997.647               
   117 r.121                       2             2               
   118 r.122                      -2         -1001               
   119 r.123                0.590392      0.590392               
   120 r.124                    1000             2               
   121 r.125                   -1000         -1001               
   122 r.126                 1998.85       2.66397               
   123 r.127                    1001             2               
   124 r.128                   -1001         -1001               
   125 r.129                  998.72      0.649364               
   126 r.130                    1001             2               
   127 r.131                   -1001         -1001               
   128 r.132                 1999.81       2.62343               
   129 r.133                -999.048      -999.048               
   130 r.134                 2.68955      -996.426               
   131 r.135                -999.048      -999.048               
   132 r.136                 2.68955      -996.426               
   133 r.137                       2             2               
   134 r.138                      -2         -1001               
   135 r.139                -1.45749      -999.528               
   136 r.140                    1000             2               
   137 r.141                   -1000         -1001               
   138 r.142                 1998.85      -997.895               
   139 r.143                 -998.07      -999.048               
   140 r.144                  3.6672      -996.426               
   141 r.145                0.439726      -999.048               
   142 r.146                 1002.18      -996.426               
   143 r.147                       2             2               
   144 r.148                      -2         -1001               
   145 r.149                -998.263      -998.853               
   146 r.150                    1000             2               
   147 r.151                   -1000         -1001               
   148 r.152                 2001.02      -994.212               
   149 r.153                 -997.24      -998.978               
   150 r.154                 2.75969      -997.647               
   151 r.155                -998.978      -998.978               
   152 r.156                  1.0223      -997.647               
   153 r.157                       2             2               
   154 r.158                      -2         -1001               
   155 r.159                 1.54255      0.590392               
   156 r.160                    1000             2               
   157 r.161                   -1000         -1001               
   158 r.162                 2001.54       2.66397               
   159 r.163                    1001             2               
   160 r.164                   -1001         -1001               
   161 r.165                 999.672      0.649364               
   162 r.166                    1001             2               
   163 r.167                   -1001         -1001               
   164 r.168                  2002.5       2.62343               
   165 r.169                       2             2               
   166 r.170                      -2         -1001               
   167 r.171               -0.505333      -999.528               
   168 r.172                    1000             2               
   169 r.173                   -1000         -1001               
   170 r.174                 2001.54      -997.895               
   171 r.175                -999.022      -999.495               
   172 r.176                0.977655      -997.365               
   173 r.177                -0.51243      -999.495               
   174 r.178                 999.488      -997.365               
   175 r.179                       2             2               
   176 r.180                      -2         -1001               
   177 r.181                 -997.31      -998.853               
   178 r.182                    1000             2               
   179 r.183                   -1000         -1001               
   180 r.184                 2003.71      -994.212               
   181 r.185                -996.288      -998.978               
   182 r.186                 3.71185      -997.647               
   183 r.187                -996.288      -998.978               
   184 r.188                 3.71185      -997.647               
   185 r.189                       2             2               
   186 r.190                      -2         -1001               
   187 r.191                 2.04788      0.590392               
   188 r.192                    1000             2               
   189 r.193                   -1000         -1001               
   190 r.194                    2000       2.66397               
   191 r.195                    1001             2               
   192 r.196                   -1001         -1001               
   193 r.197                 1000.18      0.649364               
   194 r.198                    1001             2               
   195 r.199                   -1001         -1001               
   196 r.200                 2000.96       2.62343               
   197 r.201                       2             2               
   198 r.202                      -2         -1001               
   199 r.203                 1.45749      0.952156               
   200 r.204                    1000             2               
   201 r.205                   -1000         -1001               
   202 r.206                 2001.15        3.5741               
   203 r.207                       2             2               
   204 r.208                      -2         -1001               
   205 r.209                0.505333      0.505333               
   206 r.210                    1000             2               
   207 r.211                   -1000         -1001               
   208 r.212                 1998.46       2.63529               
   209 r.213                -999.528      -999.528               
   210 r.214                  2.5202      -997.895               
   211 r.215                -1.01776      -999.528               
   212 r.216                 1001.03      -997.895               
   213 r.217                -996.805      -998.853               
   214 r.218                 4.21718      -994.212               
   215 r.219                -998.853      -998.853               
   216 r.220                  2.1693      -994.212               
   217 r.221                -995.783      -998.978               
   218 r.222                 4.21718      -997.647               
   219 r.223                -997.831      -998.978               
   220 r.224                  2.1693      -997.647               
   221 r.225                    1001             2               
   222 r.226                   -1001         -1001               
   223 r.227                 996.982      0.649364               
   224 r.228                    1001             2               
   225 r.229                   -1001         -1001               
   226 r.230                 1998.79       2.62343               
   227 r.231                       2             2               
   228 r.232                      -2         -1001               
   229 r.233                 998.263      0.952156               
   230 r.234                    1000             2               
   231 r.235                   -1000         -1001               
   232 r.236                 1998.98        3.5741               
   233 r.237                       2             2               
   234 r.238                      -2         -1001               
   235 r.239                  997.31      0.505333               
   236 r.240                    1000             2               
   237 r.241                   -1000         -1001               
   238 r.242                 1996.29       2.63529               
   239 r.243                       2             2               
   240 r.244                      -2         -1001               
   241 r.245                -998.978      -998.978               
   242 r.246                    1000             2               
   243 r.247                   -1000         -1001               
   244 r.248                    2000      -997.647               
   245 r.249                       2             2               
   246 r.250                      -2         -1001               
   247 r.251                 997.831      0.590392               
   248 r.252                    1000             2               
   249 r.253                   -1000         -1001               
   250 r.254                 1997.83       2.66397               
   251 r.255                       2             2               
   252 r.256                      -2         -1001               
   253 r.257                 998.978         1.147               
   254 r.258                    1000             2               
   255 r.259                   -1000         -1001               
   256 r.260                    2000       5.78844               

   No. Column name       Activity     Lower bound   Upper bound
------ ------------    ------------- ------------- -------------
     1 tt                    4.84316             0               
     2 s_1_1        *              1             0             1 
     3 t_1_1                  2.1693             0               
     4 s_1_7        *              1             0             1 
     5 s_2_1        *              0             0             1 
     6 t_2_1                  2.1693             0               
     7 s_2_7        *              0             0             1 
     8 s_1_2        *              0             0             1 
     9 t_1_2                 1004.15             0               
    10 s_1_8        *              1             0             1 
    11 s_2_2        *              1             0             1 
    12 t_2_2                  1.0223             0               
    13 s_2_8        *              0             0             1 
    14 s_1_3        *              1             0             1 
    15 t_1_3                 2.75969             0               
    16 s_2_3        *              0             0             1 
    17 t_2_3                  1.0223             0               
    18 s_1_4        *              1             0             1 
    19 t_1_4                 3.71185             0               
    20 s_2_4        *              0             0             1 
    21 t_2_4                 3.71185             0               
    22 s_1_5        *              1             0             1 
    23 t_1_5                 4.21718             0               
    24 s_2_5        *              0             0             1 
    25 t_2_5                  2.1693             0               
    26 s_1_6        *              1             0             1 
    27 t_1_6                  4.6895             0               
    28 s_2_6        *              0             0             1 
    29 t_2_6                  1003.2             0               
    30 t_1_7                  1.0223             0               
    31 t_2_7                       0             0               
    32 t_1_8                       0             0               
    33 t_2_8                       0             0               
    34 r_1_1_2      *              1             0             1 
    35 u_1_1_2      *              1             0             1 
    36 r_2_1_2      *              1             0             1 
    37 u_2_1_2      *              0             0             1 
    38 r_1_1_3      *              0             0             1 
    39 u_1_1_3      *              0             0             1 
    40 r_2_1_3      *              1             0             1 
    41 u_2_1_3      *              0             0             1 
    42 r_1_1_4      *              0             0             1 
    43 u_1_1_4      *              0             0             1 
    44 r_2_1_4      *              1             0             1 
    45 u_2_1_4      *              0             0             1 
    46 r_1_1_5      *              0             0             1 
    47 u_1_1_5      *              0             0             1 
    48 r_2_1_5      *              1             0             1 
    49 u_2_1_5      *              0             0             1 
    50 r_1_1_8      *              0             0             1 
    51 u_1_1_8      *              1             0             1 
    52 r_2_1_8      *              1             0             1 
    53 u_2_1_8      *              0             0             1 
    54 r_1_2_3      *              1             0             1 
    55 u_1_2_3      *              0             0             1 
    56 r_2_2_3      *              1             0             1 
    57 u_2_2_3      *              0             0             1 
    58 r_1_2_4      *              1             0             1 
    59 u_1_2_4      *              0             0             1 
    60 r_2_2_4      *              1             0             1 
    61 u_2_2_4      *              0             0             1 
    62 r_1_2_5      *              1             0             1 
    63 u_1_2_5      *              0             0             1 
    64 r_2_2_5      *              1             0             1 
    65 u_2_2_5      *              0             0             1 
    66 r_1_2_7      *              1             0             1 
    67 u_1_2_7      *              0             0             1 
    68 r_2_2_7      *              1             0             1 
    69 u_2_2_7      *              0             0             1 
    70 r_1_3_5      *              0             0             1 
    71 u_1_3_5      *              0             0             1 
    72 r_2_3_5      *              1             0             1 
    73 u_2_3_5      *              0             0             1 
    74 r_1_3_7      *              0             0             1 
    75 u_1_3_7      *              1             0             1 
    76 r_2_3_7      *              1             0             1 
    77 u_2_3_7      *              0             0             1 
    78 r_1_4_5      *              0             0             1 
    79 u_1_4_5      *              0             0             1 
    80 r_2_4_5      *              1             0             1 
    81 u_2_4_5      *              0             0             1 
    82 r_1_4_7      *              0             0             1 
    83 u_1_4_7      *              1             0             1 
    84 r_2_4_7      *              1             0             1 
    85 u_2_4_7      *              0             0             1 
    86 r_1_7_8      *              0             0             1 
    87 u_1_7_8      *              1             0             1 
    88 r_2_7_8      *              1             0             1 
    89 u_2_7_8      *              0             0             1 

Integer feasibility conditions:

KKT.PE: max.abs.err = 4.55e-13 on row 99
        max.rel.err = 9.00e-17 on row 61
        High quality

KKT.PB: max.abs.err = 1.14e-13 on row 209
        max.rel.err = 1.14e-16 on row 209
        High quality

End of output
